tsp_instances/TSP50/instance120.tsp
NODE_COORD_SECTION
0 24 83
1 200 117
2 179 45
3 72 30
4 33 194
5 168 27
6 166 77
7 154 164
8 155 144
9 165 25
10 161 167
11 45 95
12 79 47
13 149 61
14 26 12
15 15 19
16 17 93
17 118 191
18 137 13
19 176 125
20 198 84
21 45 78
22 144 58
23 60 113
24 19 87
25 65 134
26 144 72
27 122 193
28 22 55
29 145 106
30 10 55
31 42 19
32 16 192
33 150 133
34 178 168
35 134 96
36 117 64
37 59 184
38 54 106
39 37 98
40 42 80
41 185 46
42 79 157
43 88 110
44 176 197
45 22 103
46 151 157
47 92 151
48 48 100
49 180 146
