tsp_instances/TSP50/instance120.opt.tour
TOUR_SECTION
1
25
17
46
40
12
49
39
24
44
26
33
5
38
43
48
18
28
45
35
11
8
47
9
34
50
20
2
21
42
3
6
10
19
23
14
27
7
30
36
37
13
4
32
15
16
31
29
22
41
-1